c CNF file corresponding to a (partial) station packing problem.
p cnf 2489 229
1 2 3 4 5 6 7 8 9 10 11 12 13 14 0
-1 -2 0
-1 -3 0
-1 -4 0
-1 -5 0
-1 -6 0
-1 -7 0
-1 -8 0
-1 -9 0
-1 -10 0
-1 -11 0
-1 -12 0
-1 -13 0
-1 -14 0
-2 -3 0
-2 -4 0
-2 -5 0
-2 -6 0
-2 -7 0
-2 -8 0
-2 -9 0
-2 -10 0
-2 -11 0
-2 -12 0
-2 -13 0
-2 -14 0
-3 -4 0
-3 -5 0
-3 -6 0
-3 -7 0
-3 -8 0
-3 -9 0
-3 -10 0
-3 -11 0
-3 -12 0
-3 -13 0
-3 -14 0
-4 -5 0
-4 -6 0
-4 -7 0
-4 -8 0
-4 -9 0
-4 -10 0
-4 -11 0
-4 -12 0
-4 -13 0
-4 -14 0
-5 -6 0
-5 -7 0
-5 -8 0
-5 -9 0
-5 -10 0
-5 -11 0
-5 -12 0
-5 -13 0
-5 -14 0
-6 -7 0
-6 -8 0
-6 -9 0
-6 -10 0
-6 -11 0
-6 -12 0
-6 -13 0
-6 -14 0
-7 -8 0
-7 -9 0
-7 -10 0
-7 -11 0
-7 -12 0
-7 -13 0
-7 -14 0
-8 -9 0
-8 -10 0
-8 -11 0
-8 -12 0
-8 -13 0
-8 -14 0
-9 -10 0
-9 -11 0
-9 -12 0
-9 -13 0
-9 -14 0
-10 -11 0
-10 -12 0
-10 -13 0
-10 -14 0
-11 -12 0
-11 -13 0
-11 -14 0
-12 -13 0
-12 -14 0
-13 -14 0
2473 2474 2475 2476 2477 2478 2479 2480 2481 2482 2483 2484 2485 2486 2487 2488 2489 0
-2473 -2474 0
-2473 -2475 0
-2473 -2476 0
-2473 -2477 0
-2473 -2478 0
-2473 -2479 0
-2473 -2480 0
-2473 -2481 0
-2473 -2482 0
-2473 -2483 0
-2473 -2484 0
-2473 -2485 0
-2473 -2486 0
-2473 -2487 0
-2473 -2488 0
-2473 -2489 0
-2474 -2475 0
-2474 -2476 0
-2474 -2477 0
-2474 -2478 0
-2474 -2479 0
-2474 -2480 0
-2474 -2481 0
-2474 -2482 0
-2474 -2483 0
-2474 -2484 0
-2474 -2485 0
-2474 -2486 0
-2474 -2487 0
-2474 -2488 0
-2474 -2489 0
-2475 -2476 0
-2475 -2477 0
-2475 -2478 0
-2475 -2479 0
-2475 -2480 0
-2475 -2481 0
-2475 -2482 0
-2475 -2483 0
-2475 -2484 0
-2475 -2485 0
-2475 -2486 0
-2475 -2487 0
-2475 -2488 0
-2475 -2489 0
-2476 -2477 0
-2476 -2478 0
-2476 -2479 0
-2476 -2480 0
-2476 -2481 0
-2476 -2482 0
-2476 -2483 0
-2476 -2484 0
-2476 -2485 0
-2476 -2486 0
-2476 -2487 0
-2476 -2488 0
-2476 -2489 0
-2477 -2478 0
-2477 -2479 0
-2477 -2480 0
-2477 -2481 0
-2477 -2482 0
-2477 -2483 0
-2477 -2484 0
-2477 -2485 0
-2477 -2486 0
-2477 -2487 0
-2477 -2488 0
-2477 -2489 0
-2478 -2479 0
-2478 -2480 0
-2478 -2481 0
-2478 -2482 0
-2478 -2483 0
-2478 -2484 0
-2478 -2485 0
-2478 -2486 0
-2478 -2487 0
-2478 -2488 0
-2478 -2489 0
-2479 -2480 0
-2479 -2481 0
-2479 -2482 0
-2479 -2483 0
-2479 -2484 0
-2479 -2485 0
-2479 -2486 0
-2479 -2487 0
-2479 -2488 0
-2479 -2489 0
-2480 -2481 0
-2480 -2482 0
-2480 -2483 0
-2480 -2484 0
-2480 -2485 0
-2480 -2486 0
-2480 -2487 0
-2480 -2488 0
-2480 -2489 0
-2481 -2482 0
-2481 -2483 0
-2481 -2484 0
-2481 -2485 0
-2481 -2486 0
-2481 -2487 0
-2481 -2488 0
-2481 -2489 0
-2482 -2483 0
-2482 -2484 0
-2482 -2485 0
-2482 -2486 0
-2482 -2487 0
-2482 -2488 0
-2482 -2489 0
-2483 -2484 0
-2483 -2485 0
-2483 -2486 0
-2483 -2487 0
-2483 -2488 0
-2483 -2489 0
-2484 -2485 0
-2484 -2486 0
-2484 -2487 0
-2484 -2488 0
-2484 -2489 0
-2485 -2486 0
-2485 -2487 0
-2485 -2488 0
-2485 -2489 0
-2486 -2487 0
-2486 -2488 0
-2486 -2489 0
-2487 -2488 0
-2487 -2489 0
-2488 -2489 0
